Gurobi Optimizer version 10.0.3 build v10.0.3rc0 (win64)

CPU model: 13th Gen Intel(R) Core(TM) i7-13700T, instruction set [SSE2|AVX|AVX2]
Thread count: 16 physical cores, 24 logical processors, using up to 24 threads

Optimize a model with 9951685 rows, 785429 columns and 20274565 nonzeros
Model fingerprint: 0x25085d9e
Variable types: 0 continuous, 785429 integer (138720 binary)
Coefficient statistics:
  Matrix range     [1e+00, 6e+02]
  Objective range  [7e+00, 3e+02]
  Bounds range     [1e+00, 1e+00]
  RHS range        [1e+00, 6e+02]
Presolve removed 311413 rows and 499762 columns (presolve time = 5s) ...
Presolve removed 311502 rows and 499859 columns (presolve time = 10s) ...
Presolve removed 311502 rows and 499859 columns (presolve time = 15s) ...
Presolve removed 311502 rows and 499859 columns (presolve time = 20s) ...
Presolve removed 311502 rows and 499859 columns (presolve time = 25s) ...
Presolve removed 311502 rows and 499859 columns (presolve time = 30s) ...
Presolve removed 311502 rows and 499859 columns (presolve time = 35s) ...
Presolve removed 311502 rows and 533101 columns (presolve time = 40s) ...
Presolve removed 1430641 rows and 533102 columns (presolve time = 45s) ...
Presolve removed 1430810 rows and 533316 columns (presolve time = 50s) ...
Presolve removed 1430874 rows and 533316 columns (presolve time = 55s) ...
Presolve removed 1430874 rows and 533316 columns (presolve time = 60s) ...
Presolve removed 1430874 rows and 533316 columns (presolve time = 65s) ...
Presolve removed 1430874 rows and 533316 columns (presolve time = 70s) ...
Presolve removed 2548839 rows and 566695 columns (presolve time = 75s) ...
Presolve removed 2548989 rows and 566695 columns (presolve time = 80s) ...
Presolve removed 2548989 rows and 566695 columns (presolve time = 85s) ...
Presolve removed 2548989 rows and 566695 columns (presolve time = 90s) ...
Presolve removed 2574222 rows and 566695 columns (presolve time = 95s) ...
Presolve removed 3159883 rows and 598614 columns (presolve time = 100s) ...
Presolve removed 3168794 rows and 598614 columns (presolve time = 105s) ...
Presolve removed 3170894 rows and 598614 columns (presolve time = 110s) ...
Presolve removed 3171331 rows and 598614 columns (presolve time = 115s) ...
Presolve removed 3375317 rows and 598614 columns (presolve time = 121s) ...
Presolve removed 3420900 rows and 598614 columns (presolve time = 125s) ...
Presolve removed 3475782 rows and 598614 columns (presolve time = 131s) ...
Presolve removed 3523370 rows and 598614 columns (presolve time = 135s) ...
Presolve removed 3574394 rows and 598614 columns (presolve time = 140s) ...
Presolve removed 3630011 rows and 598614 columns (presolve time = 145s) ...
Presolve removed 3693418 rows and 598614 columns (presolve time = 151s) ...
Presolve removed 4260589 rows and 599992 columns (presolve time = 155s) ...
Presolve removed 4301822 rows and 631776 columns (presolve time = 160s) ...
Presolve removed 4301822 rows and 631776 columns (presolve time = 165s) ...
Presolve removed 4305072 rows and 631776 columns (presolve time = 170s) ...
Presolve removed 4305739 rows and 631776 columns (presolve time = 175s) ...
Presolve removed 4527182 rows and 631776 columns (presolve time = 181s) ...
Presolve removed 4561623 rows and 631776 columns (presolve time = 186s) ...
Presolve removed 4593678 rows and 631776 columns (presolve time = 190s) ...
Presolve removed 4630701 rows and 631776 columns (presolve time = 196s) ...
Presolve removed 4667183 rows and 631776 columns (presolve time = 201s) ...
Presolve removed 4701404 rows and 631776 columns (presolve time = 205s) ...
Presolve removed 4741284 rows and 631776 columns (presolve time = 211s) ...
Presolve removed 4770694 rows and 631776 columns (presolve time = 215s) ...
Presolve removed 4810368 rows and 631776 columns (presolve time = 221s) ...
Presolve removed 5391994 rows and 633180 columns (presolve time = 225s) ...
Presolve removed 5434697 rows and 664887 columns (presolve time = 230s) ...
Presolve removed 5438450 rows and 664887 columns (presolve time = 235s) ...
Presolve removed 5686724 rows and 664887 columns (presolve time = 240s) ...
Presolve removed 6522862 rows and 666313 columns (presolve time = 245s) ...
Presolve removed 6566737 rows and 697914 columns (presolve time = 250s) ...
Presolve removed 6570430 rows and 697914 columns (presolve time = 255s) ...
Presolve removed 6571313 rows and 697914 columns (presolve time = 260s) ...
Presolve removed 6832650 rows and 697914 columns (presolve time = 265s) ...
Presolve removed 6929539 rows and 697914 columns (presolve time = 270s) ...
Presolve removed 7037108 rows and 697914 columns (presolve time = 275s) ...
Presolve removed 7654362 rows and 699394 columns (presolve time = 280s) ...
Presolve removed 7699078 rows and 730980 columns (presolve time = 285s) ...
Presolve removed 7704245 rows and 730980 columns (presolve time = 290s) ...
Presolve removed 7905623 rows and 730980 columns (presolve time = 295s) ...
Presolve removed 7945955 rows and 730980 columns (presolve time = 301s) ...
Presolve removed 7983658 rows and 730980 columns (presolve time = 305s) ...
Presolve removed 8022166 rows and 730980 columns (presolve time = 310s) ...
Presolve removed 8060561 rows and 730980 columns (presolve time = 315s) ...
Presolve removed 8102484 rows and 730980 columns (presolve time = 320s) ...
Presolve removed 8146114 rows and 730980 columns (presolve time = 326s) ...
Presolve removed 8185455 rows and 730980 columns (presolve time = 331s) ...
Presolve removed 8219686 rows and 732439 columns (presolve time = 335s) ...
Presolve removed 8830841 rows and 763848 columns (presolve time = 340s) ...
Presolve removed 9018376 rows and 763848 columns (presolve time = 345s) ...
Presolve removed 9059644 rows and 763848 columns (presolve time = 350s) ...
Presolve removed 9099727 rows and 763848 columns (presolve time = 356s) ...
Presolve removed 9135023 rows and 763848 columns (presolve time = 360s) ...
Presolve removed 9173571 rows and 763848 columns (presolve time = 365s) ...
Presolve removed 9221375 rows and 763848 columns (presolve time = 371s) ...
Presolve removed 9256224 rows and 763848 columns (presolve time = 375s) ...
Presolve removed 9302582 rows and 763848 columns (presolve time = 381s) ...
Presolve removed 9342671 rows and 763848 columns (presolve time = 386s) ...
Presolve removed 9782134 rows and 781343 columns (presolve time = 390s) ...
Presolve removed 9864669 rows and 781343 columns (presolve time = 395s) ...
Presolve removed 9944473 rows and 782201 columns (presolve time = 400s) ...
Presolve removed 9945850 rows and 782734 columns
Presolve time: 401.80s
Presolved: 5835 rows, 2695 columns, 13385 nonzeros
Variable types: 0 continuous, 2695 integer (730 binary)
Found heuristic solution: objective 40945.960000

Root simplex log...

Iteration    Objective       Primal Inf.    Dual Inf.      Time
       0    1.0330469e+05   1.359875e+03   0.000000e+00    403s
    2690    7.7212452e+04   0.000000e+00   0.000000e+00    403s

Root relaxation: objective 7.721245e+04, 2690 iterations, 0.02 seconds (0.02 work units)

    Nodes    |    Current Node    |     Objective Bounds      |     Work
 Expl Unexpl |  Obj  Depth IntInf | Incumbent    BestBd   Gap | It/Node Time

     0     0 77212.4524    0  251 40945.9600 77212.4524  88.6%     -  403s
H    0     0                    67019.515000 77212.4524  15.2%     -  403s
H    0     0                    69188.730000 77212.4524  11.6%     -  403s
H    0     0                    72137.730000 77212.4524  7.03%     -  403s
H    0     0                    73508.730000 77212.4524  5.04%     -  403s
H    0     0                    76171.680000 77212.4524  1.37%     -  403s
     0     0 76648.7086    0   49 76171.6800 76648.7086  0.63%     -  403s
H    0     0                    76372.680000 76648.7086  0.36%     -  403s
H    0     0                    76410.680000 76648.7086  0.31%     -  403s
     0     0 76596.2911    0  137 76410.6800 76596.2911  0.24%     -  403s
     0     0 76596.2911    0  114 76410.6800 76596.2911  0.24%     -  403s
     0     0 76596.2911    0   39 76410.6800 76596.2911  0.24%     -  403s
     0     0 76596.2911    0   41 76410.6800 76596.2911  0.24%     -  403s
     0     0 76596.2911    0  100 76410.6800 76596.2911  0.24%     -  403s
     0     0 76596.2911    0   20 76410.6800 76596.2911  0.24%     -  403s
H    0     0                    76459.680000 76596.2911  0.18%     -  403s
     0     0 76596.2911    0   14 76459.6800 76596.2911  0.18%     -  403s
     0     0 76596.2911    0   27 76459.6800 76596.2911  0.18%     -  403s
     0     0 76596.2911    0    9 76459.6800 76596.2911  0.18%     -  403s
     0     0 76593.1070    0   11 76459.6800 76593.1070  0.17%     -  403s
     0     0 76591.8839    0   25 76459.6800 76591.8839  0.17%     -  403s
     0     0 76575.1081    0   29 76459.6800 76575.1081  0.15%     -  403s
H    0     0                    76475.680000 76575.1081  0.13%     -  403s
     0     0 76550.7809    0   41 76475.6800 76550.7809  0.10%     -  403s
     0     0 76550.7809    0   14 76475.6800 76550.7809  0.10%     -  403s
     0     0 76550.7809    0    4 76475.6800 76550.7809  0.10%     -  403s
     0     0 76550.7809    0    3 76475.6800 76550.7809  0.10%     -  403s
     0     0 76547.6709    0   23 76475.6800 76547.6709  0.09%     -  403s
     0     0 76515.4800    0   36 76475.6800 76515.4800  0.05%     -  403s
     0     0 76486.7900    0   34 76475.6800 76486.7900  0.01%     -  403s

Cutting planes:
  Implied bound: 1
  MIR: 4
  StrongCG: 1
  Flow cover: 3

Explored 1 nodes (4984 simplex iterations) in 404.10 seconds (174.19 work units)
Thread count was 24 (of 24 available processors)

Solution count 10: 76475.7 76459.7 76410.7 ... 40946

Optimal solution found (tolerance 1.00e-04)
Best objective 7.647568000000e+04, best bound 7.647568000000e+04, gap 0.0000%
Valor da função objetivo:  76475.68000000001

Tempo para criar o modelo:  77.37905311584473
